10
2147483647 84 49 84 47 98 71 84 16 23 
84 2147483647 39 19 8 100 39 50 37 94 
49 39 2147483647 87 62 23 89 35 32 57 
84 19 87 2147483647 33 8 48 56 85 85 
47 8 62 33 2147483647 84 21 93 87 96 
98 100 23 8 84 2147483647 15 99 91 66 
71 39 89 48 21 15 2147483647 28 6 68 
84 50 35 56 93 99 28 2147483647 38 99 
16 37 32 85 87 91 6 38 2147483647 9 
23 94 57 85 96 66 68 99 9 2147483647 
